p cnf 200 1110
-101 -20 0
-101 -72 0
-101 -29 0
-101 -85 0
-101 65 0
-101 6 0
-101 -7 0
-101 77 0
-101 -39 0
-101 34 0
101 20 72 29 85 -65 -6 7 -77 39 -34 0
-102 -40 0
-102 -19 0
-102 80 0
-102 10 0
-102 -5 0
-102 -3 0
-102 -35 0
-102 -62 0
-102 84 0
-102 -92 0
102 40 19 -80 -10 5 3 35 62 -84 92 0
-103 95 0
-103 30 0
-103 6 0
-103 -12 0
-103 -83 0
-103 19 0
-103 13 0
-103 1 0
-103 -89 0
-103 38 0
103 -95 -30 -6 12 83 -19 -13 -1 89 -38 0
-104 -91 0
-104 84 0
-104 83 0
-104 32 0
-104 -28 0
-104 16 0
-104 -7 0
-104 -70 0
-104 -51 0
-104 47 0
104 91 -84 -83 -32 28 -16 7 70 51 -47 0
-105 58 0
-105 -82 0
-105 -37 0
-105 64 0
-105 40 0
-105 43 0
-105 96 0
-105 51 0
-105 -70 0
-105 -1 0
105 -58 82 37 -64 -40 -43 -96 -51 70 1 0
-106 -36 0
-106 60 0
-106 8 0
-106 -2 0
-106 13 0
-106 11 0
-106 63 0
-106 50 0
-106 -95 0
-106 -65 0
106 36 -60 -8 2 -13 -11 -63 -50 95 65 0
-107 -87 0
-107 -35 0
-107 48 0
-107 -65 0
-107 17 0
-107 61 0
-107 81 0
-107 3 0
-107 2 0
-107 75 0
107 87 35 -48 65 -17 -61 -81 -3 -2 -75 0
-108 -29 0
-108 96 0
-108 -22 0
-108 91 0
-108 -79 0
-108 -75 0
-108 85 0
-108 57 0
-108 36 0
-108 2 0
108 29 -96 22 -91 79 75 -85 -57 -36 -2 0
-109 -93 0
-109 -40 0
-109 74 0
-109 94 0
-109 -65 0
-109 -83 0
-109 -78 0
-109 98 0
-109 7 0
-109 -45 0
109 93 40 -74 -94 65 83 78 -98 -7 45 0
-110 63 0
-110 -12 0
-110 -34 0
-110 -82 0
-110 55 0
-110 65 0
-110 -8 0
-110 -19 0
-110 40 0
-110 -9 0
110 -63 12 34 82 -55 -65 8 19 -40 9 0
101 102 103 104 105 106 107 108 109 110 0
-111 -14 0
-111 -49 0
-111 -55 0
-111 66 0
-111 -84 0
-111 80 0
-111 69 0
-111 64 0
-111 -72 0
-111 4 0
111 14 49 55 -66 84 -80 -69 -64 72 -4 0
-112 -23 0
-112 8 0
-112 52 0
-112 67 0
-112 78 0
-112 -75 0
-112 -82 0
-112 76 0
-112 -30 0
-112 -1 0
112 23 -8 -52 -67 -78 75 82 -76 30 1 0
-113 99 0
-113 98 0
-113 65 0
-113 -21 0
-113 -67 0
-113 52 0
-113 -64 0
-113 -77 0
-113 46 0
-113 -30 0
113 -99 -98 -65 21 67 -52 64 77 -46 30 0
-114 -35 0
-114 -40 0
-114 97 0
-114 -22 0
-114 72 0
-114 74 0
-114 -81 0
-114 63 0
-114 -59 0
-114 31 0
114 35 40 -97 22 -72 -74 81 -63 59 -31 0
-115 15 0
-115 -89 0
-115 -28 0
-115 -76 0
-115 54 0
-115 -70 0
-115 14 0
-115 -83 0
-115 43 0
-115 -78 0
115 -15 89 28 76 -54 70 -14 83 -43 78 0
-116 81 0
-116 94 0
-116 4 0
-116 -35 0
-116 -85 0
-116 -24 0
-116 -56 0
-116 -57 0
-116 -60 0
-116 -47 0
116 -81 -94 -4 35 85 24 56 57 60 47 0
-117 -52 0
-117 -75 0
-117 -56 0
-117 -96 0
-117 -33 0
-117 -32 0
-117 22 0
-117 -57 0
-117 58 0
-117 55 0
117 52 75 56 96 33 32 -22 57 -58 -55 0
-118 7 0
-118 -94 0
-118 -6 0
-118 -38 0
-118 -51 0
-118 -2 0
-118 -24 0
-118 -46 0
-118 76 0
-118 98 0
118 -7 94 6 38 51 2 24 46 -76 -98 0
-119 29 0
-119 -89 0
-119 -75 0
-119 -59 0
-119 -9 0
-119 -65 0
-119 34 0
-119 71 0
-119 17 0
-119 -72 0
119 -29 89 75 59 9 65 -34 -71 -17 72 0
-120 90 0
-120 55 0
-120 -46 0
-120 -70 0
-120 43 0
-120 -83 0
-120 -60 0
-120 20 0
-120 -67 0
-120 99 0
120 -90 -55 46 70 -43 83 60 -20 67 -99 0
111 112 113 114 115 116 117 118 119 120 0
-121 6 0
-121 -82 0
-121 28 0
-121 -37 0
-121 -49 0
-121 -86 0
-121 -98 0
-121 97 0
-121 8 0
-121 81 0
121 -6 82 -28 37 49 86 98 -97 -8 -81 0
-122 25 0
-122 -95 0
-122 100 0
-122 -7 0
-122 23 0
-122 90 0
-122 -13 0
-122 -59 0
-122 63 0
-122 -91 0
122 -25 95 -100 7 -23 -90 13 59 -63 91 0
-123 -44 0
-123 24 0
-123 -66 0
-123 -85 0
-123 -73 0
-123 -100 0
-123 -82 0
-123 -83 0
-123 94 0
-123 -93 0
123 44 -24 66 85 73 100 82 83 -94 93 0
-124 -24 0
-124 -28 0
-124 -49 0
-124 -59 0
-124 -79 0
-124 -93 0
-124 -37 0
-124 -38 0
-124 22 0
-124 -47 0
124 24 28 49 59 79 93 37 38 -22 47 0
-125 48 0
-125 97 0
-125 90 0
-125 -8 0
-125 -10 0
-125 -17 0
-125 5 0
-125 30 0
-125 -92 0
-125 -46 0
125 -48 -97 -90 8 10 17 -5 -30 92 46 0
-126 -36 0
-126 51 0
-126 42 0
-126 97 0
-126 37 0
-126 -5 0
-126 -61 0
-126 -52 0
-126 93 0
-126 31 0
126 36 -51 -42 -97 -37 5 61 52 -93 -31 0
-127 29 0
-127 -95 0
-127 2 0
-127 70 0
-127 -16 0
-127 -8 0
-127 77 0
-127 97 0
-127 88 0
-127 19 0
127 -29 95 -2 -70 16 8 -77 -97 -88 -19 0
-128 5 0
-128 40 0
-128 -12 0
-128 15 0
-128 -61 0
-128 36 0
-128 75 0
-128 35 0
-128 26 0
-128 13 0
128 -5 -40 12 -15 61 -36 -75 -35 -26 -13 0
-129 -96 0
-129 34 0
-129 -19 0
-129 -30 0
-129 87 0
-129 38 0
-129 26 0
-129 -88 0
-129 -46 0
-129 -80 0
129 96 -34 19 30 -87 -38 -26 88 46 80 0
-130 45 0
-130 -55 0
-130 8 0
-130 -86 0
-130 1 0
-130 23 0
-130 -3 0
-130 -66 0
-130 -61 0
-130 87 0
130 -45 55 -8 86 -1 -23 3 66 61 -87 0
121 122 123 124 125 126 127 128 129 130 0
-131 -95 0
-131 36 0
-131 -66 0
-131 -47 0
-131 -98 0
-131 -39 0
-131 -68 0
-131 14 0
-131 -12 0
-131 59 0
131 95 -36 66 47 98 39 68 -14 12 -59 0
-132 62 0
-132 57 0
-132 -81 0
-132 40 0
-132 -94 0
-132 -98 0
-132 95 0
-132 28 0
-132 -64 0
-132 89 0
132 -62 -57 81 -40 94 98 -95 -28 64 -89 0
-133 -19 0
-133 1 0
-133 -52 0
-133 43 0
-133 5 0
-133 65 0
-133 -85 0
-133 4 0
-133 -36 0
-133 81 0
133 19 -1 52 -43 -5 -65 85 -4 36 -81 0
-134 35 0
-134 -32 0
-134 -78 0
-134 27 0
-134 65 0
-134 55 0
-134 85 0
-134 73 0
-134 68 0
-134 88 0
134 -35 32 78 -27 -65 -55 -85 -73 -68 -88 0
-135 83 0
-135 33 0
-135 1 0
-135 93 0
-135 -5 0
-135 -47 0
-135 71 0
-135 -44 0
-135 -92 0
-135 39 0
135 -83 -33 -1 -93 5 47 -71 44 92 -39 0
-136 58 0
-136 -95 0
-136 -78 0
-136 5 0
-136 68 0
-136 21 0
-136 -14 0
-136 -84 0
-136 64 0
-136 54 0
136 -58 95 78 -5 -68 -21 14 84 -64 -54 0
-137 -4 0
-137 -74 0
-137 97 0
-137 -14 0
-137 -13 0
-137 -98 0
-137 -55 0
-137 70 0
-137 80 0
-137 -52 0
137 4 74 -97 14 13 98 55 -70 -80 52 0
-138 9 0
-138 21 0
-138 -99 0
-138 84 0
-138 -31 0
-138 96 0
-138 -17 0
-138 10 0
-138 58 0
-138 6 0
138 -9 -21 99 -84 31 -96 17 -10 -58 -6 0
-139 -77 0
-139 -32 0
-139 -99 0
-139 24 0
-139 -85 0
-139 -59 0
-139 11 0
-139 -97 0
-139 -96 0
-139 -7 0
139 77 32 99 -24 85 59 -11 97 96 7 0
-140 81 0
-140 75 0
-140 48 0
-140 4 0
-140 53 0
-140 28 0
-140 -72 0
-140 95 0
-140 50 0
-140 5 0
140 -81 -75 -48 -4 -53 -28 72 -95 -50 -5 0
131 132 133 134 135 136 137 138 139 140 0
-141 85 0
-141 -10 0
-141 -79 0
-141 55 0
-141 61 0
-141 48 0
-141 -33 0
-141 75 0
-141 34 0
-141 -62 0
141 -85 10 79 -55 -61 -48 33 -75 -34 62 0
-142 10 0
-142 86 0
-142 34 0
-142 -17 0
-142 -6 0
-142 -51 0
-142 85 0
-142 53 0
-142 14 0
-142 -57 0
142 -10 -86 -34 17 6 51 -85 -53 -14 57 0
-143 93 0
-143 -30 0
-143 75 0
-143 39 0
-143 4 0
-143 90 0
-143 -31 0
-143 3 0
-143 -37 0
-143 -84 0
143 -93 30 -75 -39 -4 -90 31 -3 37 84 0
-144 32 0
-144 99 0
-144 -55 0
-144 -42 0
-144 79 0
-144 -72 0
-144 -16 0
-144 46 0
-144 78 0
-144 47 0
144 -32 -99 55 42 -79 72 16 -46 -78 -47 0
-145 -63 0
-145 21 0
-145 25 0
-145 62 0
-145 66 0
-145 46 0
-145 -4 0
-145 96 0
-145 -24 0
-145 1 0
145 63 -21 -25 -62 -66 -46 4 -96 24 -1 0
-146 6 0
-146 86 0
-146 -94 0
-146 44 0
-146 -47 0
-146 -89 0
-146 98 0
-146 -43 0
-146 -19 0
-146 -18 0
146 -6 -86 94 -44 47 89 -98 43 19 18 0
-147 -7 0
-147 -45 0
-147 -1 0
-147 37 0
-147 66 0
-147 60 0
-147 -100 0
-147 9 0
-147 -44 0
-147 -57 0
147 7 45 1 -37 -66 -60 100 -9 44 57 0
-148 92 0
-148 58 0
-148 24 0
-148 21 0
-148 -18 0
-148 -13 0
-148 49 0
-148 80 0
-148 -95 0
-148 -3 0
148 -92 -58 -24 -21 18 13 -49 -80 95 3 0
-149 54 0
-149 21 0
-149 -77 0
-149 85 0
-149 64 0
-149 -88 0
-149 -69 0
-149 -50 0
-149 -67 0
-149 -2 0
149 -54 -21 77 -85 -64 88 69 50 67 2 0
-150 97 0
-150 -53 0
-150 -5 0
-150 -16 0
-150 63 0
-150 30 0
-150 -12 0
-150 -15 0
-150 24 0
-150 28 0
150 -97 53 5 16 -63 -30 12 15 -24 -28 0
141 142 143 144 145 146 147 148 149 150 0
-151 -40 0
-151 -14 0
-151 60 0
-151 -5 0
-151 -11 0
-151 -82 0
-151 2 0
-151 44 0
-151 83 0
-151 94 0
151 40 14 -60 5 11 82 -2 -44 -83 -94 0
-152 18 0
-152 -3 0
-152 -44 0
-152 -56 0
-152 -78 0
-152 -47 0
-152 62 0
-152 -75 0
-152 77 0
-152 97 0
152 -18 3 44 56 78 47 -62 75 -77 -97 0
-153 26 0
-153 42 0
-153 96 0
-153 -51 0
-153 -1 0
-153 -65 0
-153 87 0
-153 11 0
-153 -92 0
-153 -14 0
153 -26 -42 -96 51 1 65 -87 -11 92 14 0
-154 74 0
-154 -32 0
-154 -94 0
-154 13 0
-154 41 0
-154 -54 0
-154 5 0
-154 -61 0
-154 -65 0
-154 58 0
154 -74 32 94 -13 -41 54 -5 61 65 -58 0
-155 -84 0
-155 31 0
-155 57 0
-155 14 0
-155 -49 0
-155 45 0
-155 87 0
-155 -89 0
-155 52 0
-155 -77 0
155 84 -31 -57 -14 49 -45 -87 89 -52 77 0
-156 -31 0
-156 77 0
-156 38 0
-156 25 0
-156 -43 0
-156 79 0
-156 -91 0
-156 -57 0
-156 -16 0
-156 -78 0
156 31 -77 -38 -25 43 -79 91 57 16 78 0
-157 -16 0
-157 -57 0
-157 -49 0
-157 -91 0
-157 -100 0
-157 -54 0
-157 -59 0
-157 -34 0
-157 70 0
-157 -12 0
157 16 57 49 91 100 54 59 34 -70 12 0
-158 32 0
-158 -23 0
-158 -85 0
-158 -6 0
-158 59 0
-158 33 0
-158 -67 0
-158 92 0
-158 -29 0
-158 62 0
158 -32 23 85 6 -59 -33 67 -92 29 -62 0
-159 -11 0
-159 -24 0
-159 -46 0
-159 100 0
-159 42 0
-159 25 0
-159 -32 0
-159 -5 0
-159 -80 0
-159 94 0
159 11 24 46 -100 -42 -25 32 5 80 -94 0
-160 71 0
-160 100 0
-160 -99 0
-160 -96 0
-160 -75 0
-160 -57 0
-160 -35 0
-160 -27 0
-160 40 0
-160 -65 0
160 -71 -100 99 96 75 57 35 27 -40 65 0
151 152 153 154 155 156 157 158 159 160 0
-161 51 0
-161 56 0
-161 -73 0
-161 -60 0
-161 16 0
-161 -45 0
-161 -53 0
-161 24 0
-161 -29 0
-161 57 0
161 -51 -56 73 60 -16 45 53 -24 29 -57 0
-162 -49 0
-162 -9 0
-162 -27 0
-162 95 0
-162 28 0
-162 -38 0
-162 47 0
-162 89 0
-162 -75 0
-162 -40 0
162 49 9 27 -95 -28 38 -47 -89 75 40 0
-163 -39 0
-163 -31 0
-163 -73 0
-163 -89 0
-163 -32 0
-163 87 0
-163 98 0
-163 93 0
-163 22 0
-163 82 0
163 39 31 73 89 32 -87 -98 -93 -22 -82 0
-164 -9 0
-164 -63 0
-164 -60 0
-164 -5 0
-164 70 0
-164 -12 0
-164 -79 0
-164 37 0
-164 39 0
-164 28 0
164 9 63 60 5 -70 12 79 -37 -39 -28 0
-165 70 0
-165 -43 0
-165 -30 0
-165 50 0
-165 -32 0
-165 59 0
-165 49 0
-165 44 0
-165 64 0
-165 57 0
165 -70 43 30 -50 32 -59 -49 -44 -64 -57 0
-166 -9 0
-166 -92 0
-166 -68 0
-166 -71 0
-166 47 0
-166 -3 0
-166 -94 0
-166 -51 0
-166 41 0
-166 -93 0
166 9 92 68 71 -47 3 94 51 -41 93 0
-167 -17 0
-167 55 0
-167 -77 0
-167 -27 0
-167 57 0
-167 72 0
-167 -16 0
-167 -87 0
-167 -46 0
-167 -89 0
167 17 -55 77 27 -57 -72 16 87 46 89 0
-168 -40 0
-168 -76 0
-168 80 0
-168 2 0
-168 74 0
-168 6 0
-168 5 0
-168 -61 0
-168 -33 0
-168 -17 0
168 40 76 -80 -2 -74 -6 -5 61 33 17 0
-169 -41 0
-169 -74 0
-169 -68 0
-169 67 0
-169 57 0
-169 48 0
-169 -43 0
-169 33 0
-169 36 0
-169 -69 0
169 41 74 68 -67 -57 -48 43 -33 -36 69 0
-170 10 0
-170 5 0
-170 36 0
-170 -29 0
-170 56 0
-170 -54 0
-170 -98 0
-170 63 0
-170 -32 0
-170 42 0
170 -10 -5 -36 29 -56 54 98 -63 32 -42 0
161 162 163 164 165 166 167 168 169 170 0
-171 -95 0
-171 -91 0
-171 84 0
-171 7 0
-171 54 0
-171 -36 0
-171 30 0
-171 71 0
-171 -19 0
-171 -85 0
171 95 91 -84 -7 -54 36 -30 -71 19 85 0
-172 -54 0
-172 -32 0
-172 -99 0
-172 83 0
-172 21 0
-172 -56 0
-172 -26 0
-172 71 0
-172 40 0
-172 -85 0
172 54 32 99 -83 -21 56 26 -71 -40 85 0
-173 -72 0
-173 96 0
-173 70 0
-173 25 0
-173 -35 0
-173 60 0
-173 -67 0
-173 -71 0
-173 30 0
-173 -98 0
173 72 -96 -70 -25 35 -60 67 71 -30 98 0
-174 34 0
-174 3 0
-174 68 0
-174 -62 0
-174 36 0
-174 86 0
-174 14 0
-174 7 0
-174 53 0
-174 67 0
174 -34 -3 -68 62 -36 -86 -14 -7 -53 -67 0
-175 44 0
-175 71 0
-175 -6 0
-175 -55 0
-175 -20 0
-175 10 0
-175 -25 0
-175 -21 0
-175 -65 0
-175 -3 0
175 -44 -71 6 55 20 -10 25 21 65 3 0
-176 46 0
-176 -42 0
-176 -81 0
-176 69 0
-176 22 0
-176 -49 0
-176 -14 0
-176 75 0
-176 54 0
-176 60 0
176 -46 42 81 -69 -22 49 14 -75 -54 -60 0
-177 32 0
-177 56 0
-177 -67 0
-177 81 0
-177 -49 0
-177 -23 0
-177 -65 0
-177 1 0
-177 -39 0
-177 -7 0
177 -32 -56 67 -81 49 23 65 -1 39 7 0
-178 -91 0
-178 -59 0
-178 69 0
-178 3 0
-178 -4 0
-178 37 0
-178 90 0
-178 55 0
-178 -44 0
-178 38 0
178 91 59 -69 -3 4 -37 -90 -55 44 -38 0
-179 16 0
-179 -45 0
-179 59 0
-179 -42 0
-179 -30 0
-179 -72 0
-179 92 0
-179 -21 0
-179 5 0
-179 96 0
179 -16 45 -59 42 30 72 -92 21 -5 -96 0
-180 -71 0
-180 -91 0
-180 -86 0
-180 55 0
-180 15 0
-180 17 0
-180 -2 0
-180 -89 0
-180 72 0
-180 -30 0
180 71 91 86 -55 -15 -17 2 89 -72 30 0
171 172 173 174 175 176 177 178 179 180 0
-181 36 0
-181 29 0
-181 -23 0
-181 37 0
-181 -20 0
-181 -35 0
-181 19 0
-181 93 0
-181 -96 0
-181 -5 0
181 -36 -29 23 -37 20 35 -19 -93 96 5 0
-182 -36 0
-182 -55 0
-182 -72 0
-182 -50 0
-182 17 0
-182 60 0
-182 19 0
-182 -52 0
-182 58 0
-182 -39 0
182 36 55 72 50 -17 -60 -19 52 -58 39 0
-183 -2 0
-183 43 0
-183 -47 0
-183 76 0
-183 -69 0
-183 -73 0
-183 99 0
-183 -96 0
-183 87 0
-183 -62 0
183 2 -43 47 -76 69 73 -99 96 -87 62 0
-184 58 0
-184 -14 0
-184 -76 0
-184 -62 0
-184 30 0
-184 99 0
-184 -13 0
-184 -45 0
-184 32 0
-184 22 0
184 -58 14 76 62 -30 -99 13 45 -32 -22 0
-185 56 0
-185 78 0
-185 -60 0
-185 -93 0
-185 51 0
-185 84 0
-185 40 0
-185 -22 0
-185 -57 0
-185 14 0
185 -56 -78 60 93 -51 -84 -40 22 57 -14 0
-186 -17 0
-186 98 0
-186 -64 0
-186 88 0
-186 46 0
-186 -25 0
-186 -99 0
-186 -2 0
-186 -66 0
-186 11 0
186 17 -98 64 -88 -46 25 99 2 66 -11 0
-187 -57 0
-187 -80 0
-187 5 0
-187 27 0
-187 68 0
-187 84 0
-187 75 0
-187 88 0
-187 63 0
-187 -1 0
187 57 80 -5 -27 -68 -84 -75 -88 -63 1 0
-188 -100 0
-188 -63 0
-188 -12 0
-188 -75 0
-188 73 0
-188 -93 0
-188 86 0
-188 -24 0
-188 17 0
-188 51 0
188 100 63 12 75 -73 93 -86 24 -17 -51 0
-189 -71 0
-189 -4 0
-189 49 0
-189 88 0
-189 70 0
-189 2 0
-189 -54 0
-189 -93 0
-189 -73 0
-189 52 0
189 71 4 -49 -88 -70 -2 54 93 73 -52 0
-190 99 0
-190 -81 0
-190 -60 0
-190 -26 0
-190 23 0
-190 -36 0
-190 -88 0
-190 -87 0
-190 -11 0
-190 -44 0
190 -99 81 60 26 -23 36 88 87 11 44 0
181 182 183 184 185 186 187 188 189 190 0
-191 -94 0
-191 20 0
-191 69 0
-191 -82 0
-191 -23 0
-191 50 0
-191 -4 0
-191 -62 0
-191 -32 0
-191 -75 0
191 94 -20 -69 82 23 -50 4 62 32 75 0
-192 -20 0
-192 -83 0
-192 43 0
-192 14 0
-192 53 0
-192 75 0
-192 71 0
-192 99 0
-192 -38 0
-192 92 0
192 20 83 -43 -14 -53 -75 -71 -99 38 -92 0
-193 79 0
-193 19 0
-193 16 0
-193 -100 0
-193 28 0
-193 -12 0
-193 45 0
-193 -33 0
-193 67 0
-193 -82 0
193 -79 -19 -16 100 -28 12 -45 33 -67 82 0
-194 6 0
-194 -61 0
-194 -48 0
-194 -42 0
-194 37 0
-194 7 0
-194 40 0
-194 62 0
-194 -59 0
-194 72 0
194 -6 61 48 42 -37 -7 -40 -62 59 -72 0
-195 -20 0
-195 70 0
-195 -82 0
-195 94 0
-195 -63 0
-195 -65 0
-195 -71 0
-195 -55 0
-195 3 0
-195 85 0
195 20 -70 82 -94 63 65 71 55 -3 -85 0
-196 73 0
-196 -14 0
-196 60 0
-196 -6 0
-196 -4 0
-196 65 0
-196 -7 0
-196 -23 0
-196 -83 0
-196 17 0
196 -73 14 -60 6 4 -65 7 23 83 -17 0
-197 -35 0
-197 3 0
-197 6 0
-197 65 0
-197 23 0
-197 -29 0
-197 95 0
-197 -79 0
-197 -37 0
-197 -43 0
197 35 -3 -6 -65 -23 29 -95 79 37 43 0
-198 -32 0
-198 12 0
-198 44 0
-198 -54 0
-198 15 0
-198 -99 0
-198 87 0
-198 -68 0
-198 -40 0
-198 7 0
198 32 -12 -44 54 -15 99 -87 68 40 -7 0
-199 8 0
-199 33 0
-199 71 0
-199 76 0
-199 -89 0
-199 82 0
-199 43 0
-199 53 0
-199 -29 0
-199 20 0
199 -8 -33 -71 -76 89 -82 -43 -53 29 -20 0
-200 47 0
-200 44 0
-200 19 0
-200 -21 0
-200 -79 0
-200 28 0
-200 -97 0
-200 -45 0
-200 -52 0
-200 46 0
200 -47 -44 -19 21 79 -28 97 45 52 -46 0
191 192 193 194 195 196 197 198 199 200 0
